c This Formular is generated by mcnf
c
c    horn? no 
c    forced? no 
c    mixed sat? no 
c    clause length = 3 
c
p cnf 20  91 
 -17 -13 -15 0
-11 -13 -12 0
20 11 16 0
-4 2 -16 0
-4 14 1 0
-17 -6 16 0
-3 7 -1 0
13 -6 10 0
9 -18 -12 0
4 -1 -11 0
8 11 5 0
-12 -5 -8 0
-11 -19 -1 0
-7 9 -2 0
-15 7 9 0
-8 -11 -13 0
-2 -18 13 0
7 13 -4 0
12 -13 -16 0
-18 5 2 0
-6 16 -3 0
%
0

55 61 29 53 27 14 58 50 69 92 75 23 98 81 22 32 53 34 23 29
